r = [
0,42,150,7,82,3,95,118,111,44,19,0
];
p = [
0,13,27,2,3,3,24,27,29,24,18,0
];
e = [
0,9,20,8,12,6,11,8,16,18,4,0
];
d = [
0,55,177,24,130,62,119,145,142,80,69,191
];
d_bar = [
0,62,191,25,132,64,131,159,157,92,78,191
];
w = [
0,1.285714286,1.428571429,8,6,3,0.916666667,0.571428571,1.066666667,1.5,0.444444444,0
];
